0 4773
2401 4671
4802 4609
7203 4535
9604 4459
12005 4363
14406 4321
16807 4301
19208 4276
21609 4263
24010 4229
26411 4216
28812 4199
31213 4189
33614 4174
36015 4159
38416 4141
40817 4131
43218 4108
45619 4096
48020 4094
50421 4087
52822 4083
55223 4079
57624 4070
60025 4064
62426 4056
64827 4053
67228 4037
69629 4027
